Minimize
	value: tt

Subject to
tt + 2000 s_1_1 > 0
tt - t_1_1 - 2000.000000 s_1_1 > -1996.033700
tt + 2000 s_2_1 > 0
tt - t_2_1 - 2000.000000 s_2_1 > -1997.260500
tt + 2000 s_1_2 > 0
tt - t_1_2 - 2000.000000 s_1_2 > -1999.828600
tt + 2000 s_2_2 > 0
tt - t_2_2 - 2000.000000 s_2_2 > -1998.782100
tt + 2000 s_1_3 > 0
tt - t_1_3 - 2000.000000 s_1_3 > -1980.242300
tt + 2000 s_2_3 > 0
tt - t_2_3 - 2000.000000 s_2_3 > -1989.404900
tt + 2000 s_1_4 > 0
tt - t_1_4 - 2018.187635 s_1_4 + 18.187635 s_1_3 > -1999.952700
tt + 2000 s_2_4 > 0
tt - t_2_4 - 2036.375271 s_2_4 + 36.375271 s_2_3 > -1998.766500
s_1_1 + s_2_1  = 1
s_1_2 + s_2_2  = 1
s_1_3 + s_2_3  = 1
s_1_4 + s_2_4  = 1
t_1_1 - t_1_2 + 2000.000000 u_1_1_2 > 0.171400
t_1_2 - t_1_1 - 2000.000000 u_1_1_2 > -1996.033700
t_2_1 - t_2_2 + 2000.000000 u_2_1_2 > 1.217900
t_2_2 - t_2_1 - 2000.000000 u_2_1_2 > -1997.260500
t_1_1 - t_1_3 + 2000.000000 u_1_1_3 > 19.757700
t_1_3 - t_1_1 - 2000.000000 u_1_1_3 > -1996.033700
t_2_1 - t_2_3 + 2000.000000 u_2_1_3 > 10.595100
t_2_3 - t_2_1 - 2000.000000 u_2_1_3 > -1997.260500
t_1_4 - t_1_1 - 2000.000000 s_1_1 > -1989.619152
t_1_4 - t_2_1 - 2000.000000 s_2_1 > -1984.431404
t_2_4 - t_1_1 - 2000.000000 s_1_1 > -1989.619152
t_2_4 - t_2_1 - 2000.000000 s_2_1 > -1984.431404
t_1_2 - t_1_1 + 2000.000000 u_1_2_1 > 3.966300
t_1_1 - t_1_2 - 2000.000000 u_1_2_1 > -1999.828600
t_2_2 - t_2_1 + 2000.000000 u_2_2_1 > 2.739500
t_2_1 - t_2_2 - 2000.000000 u_2_2_1 > -1998.782100
t_1_2 - t_1_3 + 2000.000000 u_1_2_3 > 19.757700
t_1_3 - t_1_2 - 2000.000000 u_1_2_3 > -1999.828600
t_2_2 - t_2_3 + 2000.000000 u_2_2_3 > 10.595100
t_2_3 - t_2_2 - 2000.000000 u_2_2_3 > -1998.782100
t_1_4 - t_1_2 - 2000.000000 s_1_2 > -1993.414052
t_1_4 - t_2_2 - 2000.000000 s_2_2 > -1985.953004
t_2_4 - t_1_2 - 2000.000000 s_1_2 > -1993.414052
t_2_4 - t_2_2 - 2000.000000 s_2_2 > -1985.953004
t_1_3 - t_1_1 + 2000.000000 u_1_3_1 > 3.966300
t_1_1 - t_1_3 - 2000.000000 u_1_3_1 > -1980.242300
t_2_3 - t_2_1 + 2000.000000 u_2_3_1 > 2.739500
t_2_1 - t_2_3 - 2000.000000 u_2_3_1 > -1989.404900
t_1_3 - t_1_2 + 2000.000000 u_1_3_2 > 0.171400
t_1_2 - t_1_3 - 2000.000000 u_1_3_2 > -1980.242300
t_2_3 - t_2_2 + 2000.000000 u_2_3_2 > 1.217900
t_2_2 - t_2_3 - 2000.000000 u_2_3_2 > -1989.404900
t_1_4 - t_1_3 - 2000.000000 s_1_3 > -1973.827752
t_1_4 - t_2_3 - 2000.000000 s_2_3 > -1976.575804
t_2_4 - t_1_3 - 2000.000000 s_1_3 > -1973.827752
t_2_4 - t_2_3 - 2000.000000 s_2_3 > -1976.575804
t_1_4 - t_1_1 - 2000.000000 s_1_1 > -1989.619152
t_1_4 - t_2_1 - 2000.000000 s_2_1 > -1984.431404
t_2_4 - t_1_1 - 2000.000000 s_1_1 > -1989.619152
t_2_4 - t_2_1 - 2000.000000 s_2_1 > -1984.431404
t_1_4 - t_1_2 - 2000.000000 s_1_2 > -1993.414052
t_1_4 - t_2_2 - 2000.000000 s_2_2 > -1985.953004
t_2_4 - t_1_2 - 2000.000000 s_1_2 > -1993.414052
t_2_4 - t_2_2 - 2000.000000 s_2_2 > -1985.953004
t_1_4 - t_1_3 - 2000.000000 s_1_3 > -1973.827752
t_1_4 - t_2_3 - 2000.000000 s_2_3 > -1976.575804
t_2_4 - t_1_3 - 2000.000000 s_1_3 > -1973.827752
t_2_4 - t_2_3 - 2000.000000 s_2_3 > -1976.575804
Binary
s_1_1
s_2_1
s_1_2
s_2_2
s_1_3
s_2_3
s_1_4
s_2_4
u_1_1_2
u_2_1_2
u_1_1_3
u_2_1_3
u_1_2_1
u_2_2_1
u_1_2_3
u_2_2_3
u_1_3_1
u_2_3_1
u_1_3_2
u_2_3_2

End
